c FILE /home/rafael/Documents/HappySet/MIHS/inputs/happygen/output/graph_random_k3_p0.3_v100_20241127_083609.txt
c SOURCE This is a random graph formed for the happy graph colouring problem.
c DESCRIPTION It was generated using the problem generator of Rhyd Lewis
c
c GRAPH STATS
c Seed                             = 357460211
c Number of Nodes                  = 100
c Edge probability defined by user = 0.5
c Number of colours k              = 3
c Number of pre-assignments        = 30
c Actual density                   = 0.506061
c 
c The degrees of nodes 1 to 100, respectively, are as follows 
c [62, 62, 61, 60, 58, 58, 58, 58, 58, 58, 57, 57, 56, 55, 55, 55, 55, 55, 55, 55, 55, 54, 54, 54, 54, 54, 
c  54, 53, 53, 52, 52, 52, 52, 52, 52, 52, 52, 52, 51, 51, 51, 51, 51, 51, 51, 51, 51, 50, 50, 50, 50, 
c  50, 49, 49, 49, 49, 49, 49, 49, 49, 49, 49, 48, 48, 48, 48, 48, 48, 48, 47, 47, 47, 47, 47, 47, 47, 
c  47, 47, 46, 46, 46, 46, 46, 46, 46, 46, 46, 45, 45, 44, 44, 43, 42, 41, 41, 40, 39, 39, 38, 36] 
c  
p edge 100 2505 3
e 1 2
e 1 4
e 1 5
e 1 6
e 1 7
e 1 8
e 1 9
e 1 10
e 1 12
e 1 13
e 1 14
e 1 15
e 1 17
e 1 19
e 1 20
e 1 21
e 1 22
e 1 23
e 1 24
e 1 25
e 1 26
e 1 30
e 1 31
e 1 32
e 1 33
e 1 35
e 1 36
e 1 40
e 1 41
e 1 43
e 1 44
e 1 46
e 1 47
e 1 48
e 1 50
e 1 51
e 1 52
e 1 54
e 1 55
e 1 56
e 1 59
e 1 60
e 1 61
e 1 62
e 1 65
e 1 66
e 1 70
e 1 74
e 1 75
e 1 78
e 1 79
e 1 82
e 1 83
e 1 84
e 1 85
e 1 87
e 1 89
e 1 92
e 1 94
e 1 95
e 1 97
e 1 99
e 2 3
e 2 4
e 2 5
e 2 7
e 2 8
e 2 10
e 2 11
e 2 12
e 2 13
e 2 14
e 2 15
e 2 18
e 2 21
e 2 22
e 2 23
e 2 24
e 2 27
e 2 28
e 2 29
e 2 31
e 2 32
e 2 33
e 2 36
e 2 38
e 2 39
e 2 40
e 2 41
e 2 42
e 2 46
e 2 47
e 2 48
e 2 52
e 2 55
e 2 58
e 2 60
e 2 61
e 2 62
e 2 64
e 2 65
e 2 66
e 2 68
e 2 69
e 2 70
e 2 72
e 2 76
e 2 77
e 2 78
e 2 79
e 2 80
e 2 81
e 2 82
e 2 83
e 2 84
e 2 85
e 2 87
e 2 88
e 2 89
e 2 90
e 2 95
e 2 96
e 2 97
e 3 4
e 3 5
e 3 6
e 3 8
e 3 9
e 3 10
e 3 11
e 3 12
e 3 13
e 3 15
e 3 16
e 3 17
e 3 18
e 3 19
e 3 20
e 3 24
e 3 25
e 3 26
e 3 27
e 3 28
e 3 30
e 3 31
e 3 32
e 3 37
e 3 38
e 3 40
e 3 41
e 3 42
e 3 43
e 3 44
e 3 45
e 3 47
e 3 48
e 3 49
e 3 51
e 3 53
e 3 55
e 3 56
e 3 58
e 3 59
e 3 60
e 3 61
e 3 63
e 3 67
e 3 69
e 3 70
e 3 71
e 3 73
e 3 75
e 3 76
e 3 78
e 3 79
e 3 85
e 3 87
e 3 88
e 3 91
e 3 92
e 3 94
e 3 97
e 3 98
e 4 5
e 4 6
e 4 7
e 4 8
e 4 9
e 4 10
e 4 12
e 4 13
e 4 15
e 4 16
e 4 17
e 4 18
e 4 19
e 4 21
e 4 23
e 4 27
e 4 28
e 4 29
e 4 30
e 4 33
e 4 34
e 4 36
e 4 38
e 4 42
e 4 44
e 4 45
e 4 48
e 4 51
e 4 52
e 4 53
e 4 55
e 4 56
e 4 58
e 4 59
e 4 62
e 4 64
e 4 65
e 4 66
e 4 68
e 4 69
e 4 72
e 4 76
e 4 77
e 4 79
e 4 80
e 4 81
e 4 83
e 4 86
e 4 87
e 4 89
e 4 90
e 4 91
e 4 93
e 4 94
e 4 95
e 4 96
e 4 97
e 5 7
e 5 8
e 5 9
e 5 10
e 5 11
e 5 12
e 5 13
e 5 15
e 5 16
e 5 18
e 5 19
e 5 21
e 5 23
e 5 25
e 5 31
e 5 32
e 5 33
e 5 37
e 5 38
e 5 39
e 5 40
e 5 42
e 5 43
e 5 44
e 5 48
e 5 49
e 5 50
e 5 55
e 5 58
e 5 59
e 5 60
e 5 61
e 5 62
e 5 66
e 5 67
e 5 68
e 5 70
e 5 72
e 5 74
e 5 75
e 5 76
e 5 80
e 5 81
e 5 82
e 5 83
e 5 85
e 5 86
e 5 88
e 5 91
e 5 92
e 5 93
e 5 96
e 5 97
e 5 98
e 6 9
e 6 10
e 6 11
e 6 12
e 6 13
e 6 14
e 6 16
e 6 17
e 6 19
e 6 20
e 6 22
e 6 23
e 6 26
e 6 31
e 6 32
e 6 33
e 6 34
e 6 35
e 6 36
e 6 37
e 6 40
e 6 42
e 6 43
e 6 45
e 6 46
e 6 47
e 6 48
e 6 50
e 6 51
e 6 52
e 6 54
e 6 55
e 6 56
e 6 57
e 6 58
e 6 59
e 6 60
e 6 62
e 6 65
e 6 66
e 6 67
e 6 72
e 6 74
e 6 76
e 6 79
e 6 80
e 6 85
e 6 89
e 6 90
e 6 91
e 6 93
e 6 96
e 6 97
e 6 98
e 6 99
e 7 8
e 7 9
e 7 10
e 7 11
e 7 12
e 7 13
e 7 18
e 7 19
e 7 22
e 7 23
e 7 24
e 7 25
e 7 26
e 7 27
e 7 28
e 7 29
e 7 30
e 7 31
e 7 32
e 7 33
e 7 37
e 7 38
e 7 39
e 7 41
e 7 43
e 7 44
e 7 45
e 7 49
e 7 51
e 7 54
e 7 55
e 7 56
e 7 57
e 7 59
e 7 60
e 7 64
e 7 65
e 7 66
e 7 67
e 7 68
e 7 69
e 7 70
e 7 71
e 7 76
e 7 77
e 7 79
e 7 81
e 7 83
e 7 86
e 7 90
e 7 91
e 7 95
e 7 97
e 7 100
e 8 10
e 8 12
e 8 16
e 8 18
e 8 19
e 8 20
e 8 21
e 8 24
e 8 25
e 8 26
e 8 28
e 8 29
e 8 31
e 8 33
e 8 34
e 8 37
e 8 39
e 8 42
e 8 44
e 8 46
e 8 47
e 8 48
e 8 49
e 8 50
e 8 52
e 8 53
e 8 55
e 8 57
e 8 58
e 8 59
e 8 60
e 8 61
e 8 64
e 8 66
e 8 67
e 8 69
e 8 70
e 8 71
e 8 73
e 8 74
e 8 76
e 8 78
e 8 80
e 8 81
e 8 82
e 8 83
e 8 85
e 8 87
e 8 90
e 8 95
e 8 96
e 8 100
e 9 10
e 9 13
e 9 15
e 9 16
e 9 17
e 9 18
e 9 19
e 9 21
e 9 22
e 9 23
e 9 24
e 9 25
e 9 26
e 9 28
e 9 29
e 9 31
e 9 34
e 9 37
e 9 38
e 9 41
e 9 42
e 9 43
e 9 44
e 9 45
e 9 47
e 9 48
e 9 49
e 9 52
e 9 57
e 9 59
e 9 60
e 9 61
e 9 62
e 9 63
e 9 65
e 9 70
e 9 71
e 9 73
e 9 74
e 9 75
e 9 77
e 9 78
e 9 79
e 9 80
e 9 81
e 9 85
e 9 88
e 9 91
e 9 93
e 9 96
e 9 98
e 9 99
e 10 11
e 10 13
e 10 14
e 10 15
e 10 17
e 10 18
e 10 20
e 10 22
e 10 23
e 10 24
e 10 25
e 10 27
e 10 28
e 10 29
e 10 32
e 10 33
e 10 34
e 10 37
e 10 38
e 10 39
e 10 40
e 10 42
e 10 43
e 10 45
e 10 47
e 10 50
e 10 51
e 10 52
e 10 53
e 10 55
e 10 60
e 10 62
e 10 63
e 10 64
e 10 65
e 10 68
e 10 72
e 10 73
e 10 75
e 10 76
e 10 78
e 10 79
e 10 84
e 10 85
e 10 86
e 10 89
e 10 91
e 10 92
e 10 94
e 11 17
e 11 18
e 11 19
e 11 20
e 11 21
e 11 22
e 11 24
e 11 26
e 11 29
e 11 30
e 11 31
e 11 33
e 11 35
e 11 36
e 11 38
e 11 39
e 11 41
e 11 44
e 11 45
e 11 46
e 11 48
e 11 51
e 11 52
e 11 53
e 11 54
e 11 56
e 11 57
e 11 59
e 11 63
e 11 64
e 11 65
e 11 66
e 11 67
e 11 69
e 11 71
e 11 75
e 11 77
e 11 78
e 11 80
e 11 81
e 11 82
e 11 83
e 11 85
e 11 86
e 11 88
e 11 89
e 11 91
e 11 92
e 11 93
e 11 95
e 11 98
e 12 14
e 12 15
e 12 17
e 12 18
e 12 19
e 12 20
e 12 21
e 12 23
e 12 24
e 12 25
e 12 26
e 12 27
e 12 29
e 12 30
e 12 31
e 12 32
e 12 34
e 12 35
e 12 37
e 12 41
e 12 42
e 12 44
e 12 45
e 12 47
e 12 50
e 12 51
e 12 52
e 12 55
e 12 57
e 12 59
e 12 60
e 12 61
e 12 67
e 12 69
e 12 70
e 12 72
e 12 73
e 12 76
e 12 78
e 12 79
e 12 84
e 12 86
e 12 88
e 12 89
e 12 91
e 12 94
e 12 95
e 12 96
e 12 97
e 13 14
e 13 16
e 13 19
e 13 20
e 13 23
e 13 24
e 13 26
e 13 27
e 13 28
e 13 29
e 13 30
e 13 31
e 13 33
e 13 35
e 13 40
e 13 42
e 13 44
e 13 46
e 13 49
e 13 50
e 13 51
e 13 52
e 13 53
e 13 54
e 13 56
e 13 57
e 13 58
e 13 62
e 13 63
e 13 65
e 13 66
e 13 67
e 13 70
e 13 72
e 13 73
e 13 77
e 13 78
e 13 81
e 13 82
e 13 83
e 13 84
e 13 87
e 13 89
e 13 91
e 13 92
e 13 93
e 13 97
e 14 15
e 14 16
e 14 20
e 14 21
e 14 22
e 14 23
e 14 24
e 14 25
e 14 29
e 14 30
e 14 34
e 14 35
e 14 36
e 14 37
e 14 40
e 14 41
e 14 43
e 14 46
e 14 48
e 14 51
e 14 52
e 14 53
e 14 54
e 14 55
e 14 56
e 14 57
e 14 58
e 14 59
e 14 60
e 14 63
e 14 65
e 14 68
e 14 73
e 14 74
e 14 75
e 14 80
e 14 82
e 14 83
e 14 84
e 14 85
e 14 87
e 14 90
e 14 91
e 14 92
e 14 93
e 14 94
e 14 98
e 14 99
e 14 100
e 15 16
e 15 17
e 15 19
e 15 20
e 15 22
e 15 23
e 15 24
e 15 25
e 15 27
e 15 28
e 15 29
e 15 32
e 15 33
e 15 34
e 15 35
e 15 36
e 15 37
e 15 38
e 15 39
e 15 40
e 15 41
e 15 44
e 15 50
e 15 51
e 15 52
e 15 54
e 15 55
e 15 56
e 15 57
e 15 58
e 15 59
e 15 65
e 15 67
e 15 69
e 15 71
e 15 73
e 15 74
e 15 75
e 15 77
e 15 81
e 15 82
e 15 84
e 15 89
e 15 90
e 15 97
e 15 100
e 16 17
e 16 18
e 16 19
e 16 23
e 16 24
e 16 26
e 16 28
e 16 29
e 16 30
e 16 31
e 16 33
e 16 34
e 16 35
e 16 40
e 16 41
e 16 44
e 16 46
e 16 47
e 16 49
e 16 51
e 16 54
e 16 55
e 16 56
e 16 57
e 16 58
e 16 59
e 16 60
e 16 62
e 16 63
e 16 64
e 16 65
e 16 66
e 16 69
e 16 70
e 16 71
e 16 72
e 16 74
e 16 75
e 16 79
e 16 81
e 16 84
e 16 90
e 16 92
e 16 95
e 16 98
e 16 100
e 17 21
e 17 22
e 17 23
e 17 31
e 17 32
e 17 33
e 17 35
e 17 40
e 17 41
e 17 43
e 17 45
e 17 47
e 17 48
e 17 49
e 17 50
e 17 51
e 17 54
e 17 55
e 17 58
e 17 60
e 17 61
e 17 62
e 17 63
e 17 65
e 17 67
e 17 68
e 17 69
e 17 73
e 17 74
e 17 75
e 17 79
e 17 80
e 17 81
e 17 84
e 17 85
e 17 86
e 17 87
e 17 88
e 17 89
e 17 91
e 17 93
e 17 95
e 17 97
e 17 98
e 17 99
e 18 21
e 18 22
e 18 23
e 18 28
e 18 29
e 18 30
e 18 32
e 18 33
e 18 36
e 18 40
e 18 41
e 18 42
e 18 43
e 18 45
e 18 46
e 18 47
e 18 49
e 18 50
e 18 53
e 18 54
e 18 55
e 18 56
e 18 60
e 18 61
e 18 62
e 18 70
e 18 71
e 18 72
e 18 73
e 18 75
e 18 76
e 18 77
e 18 80
e 18 81
e 18 83
e 18 84
e 18 85
e 18 88
e 18 93
e 18 94
e 18 97
e 18 98
e 18 99
e 18 100
e 19 20
e 19 21
e 19 22
e 19 23
e 19 24
e 19 25
e 19 27
e 19 28
e 19 30
e 19 33
e 19 35
e 19 37
e 19 42
e 19 47
e 19 48
e 19 52
e 19 57
e 19 58
e 19 60
e 19 62
e 19 65
e 19 66
e 19 67
e 19 68
e 19 69
e 19 70
e 19 73
e 19 75
e 19 77
e 19 80
e 19 81
e 19 83
e 19 85
e 19 86
e 19 89
e 19 92
e 19 93
e 19 94
e 19 95
e 19 96
e 19 97
e 19 98
e 20 21
e 20 22
e 20 25
e 20 27
e 20 29
e 20 30
e 20 32
e 20 34
e 20 35
e 20 36
e 20 37
e 20 38
e 20 39
e 20 42
e 20 43
e 20 46
e 20 47
e 20 48
e 20 51
e 20 53
e 20 55
e 20 57
e 20 59
e 20 60
e 20 61
e 20 64
e 20 65
e 20 66
e 20 68
e 20 74
e 20 75
e 20 76
e 20 79
e 20 84
e 20 85
e 20 86
e 20 88
e 20 91
e 20 93
e 20 94
e 20 95
e 20 96
e 20 97
e 20 100
e 21 22
e 21 23
e 21 24
e 21 28
e 21 29
e 21 31
e 21 32
e 21 34
e 21 35
e 21 36
e 21 39
e 21 40
e 21 43
e 21 44
e 21 45
e 21 49
e 21 50
e 21 52
e 21 57
e 21 60
e 21 61
e 21 64
e 21 65
e 21 66
e 21 67
e 21 68
e 21 69
e 21 71
e 21 74
e 21 76
e 21 77
e 21 78
e 21 80
e 21 83
e 21 84
e 21 85
e 21 86
e 21 90
e 21 93
e 21 95
e 21 97
e 21 99
e 22 27
e 22 32
e 22 33
e 22 35
e 22 36
e 22 37
e 22 40
e 22 41
e 22 42
e 22 43
e 22 44
e 22 45
e 22 46
e 22 47
e 22 49
e 22 50
e 22 52
e 22 55
e 22 57
e 22 60
e 22 61
e 22 63
e 22 64
e 22 65
e 22 68
e 22 69
e 22 75
e 22 77
e 22 81
e 22 82
e 22 83
e 22 85
e 22 86
e 22 87
e 22 89
e 22 91
e 22 94
e 22 95
e 22 96
e 22 99
e 23 25
e 23 26
e 23 28
e 23 29
e 23 32
e 23 36
e 23 39
e 23 40
e 23 41
e 23 42
e 23 43
e 23 45
e 23 47
e 23 51
e 23 53
e 23 54
e 23 55
e 23 58
e 23 59
e 23 62
e 23 63
e 23 64
e 23 66
e 23 67
e 23 72
e 23 74
e 23 76
e 23 79
e 23 82
e 23 84
e 23 86
e 23 87
e 23 88
e 23 91
e 23 92
e 23 93
e 23 98
e 24 25
e 24 26
e 24 27
e 24 32
e 24 33
e 24 34
e 24 36
e 24 39
e 24 41
e 24 42
e 24 43
e 24 44
e 24 45
e 24 46
e 24 47
e 24 48
e 24 49
e 24 50
e 24 51
e 24 54
e 24 55
e 24 57
e 24 58
e 24 61
e 24 66
e 24 67
e 24 71
e 24 73
e 24 77
e 24 79
e 24 80
e 24 83
e 24 84
e 24 87
e 24 90
e 24 95
e 24 97
e 24 98
e 24 99
e 25 27
e 25 29
e 25 30
e 25 31
e 25 32
e 25 33
e 25 34
e 25 36
e 25 37
e 25 38
e 25 39
e 25 43
e 25 44
e 25 45
e 25 50
e 25 53
e 25 54
e 25 58
e 25 59
e 25 61
e 25 62
e 25 63
e 25 64
e 25 67
e 25 69
e 25 71
e 25 73
e 25 78
e 25 79
e 25 81
e 25 82
e 25 86
e 25 87
e 25 90
e 25 91
e 25 92
e 25 93
e 25 95
e 25 96
e 25 99
e 26 27
e 26 31
e 26 33
e 26 34
e 26 38
e 26 39
e 26 41
e 26 42
e 26 44
e 26 45
e 26 46
e 26 47
e 26 48
e 26 50
e 26 51
e 26 53
e 26 54
e 26 57
e 26 58
e 26 62
e 26 65
e 26 66
e 26 67
e 26 68
e 26 69
e 26 70
e 26 72
e 26 73
e 26 75
e 26 76
e 26 77
e 26 78
e 26 79
e 26 81
e 26 82
e 26 83
e 26 84
e 26 85
e 26 89
e 26 90
e 26 92
e 26 93
e 27 28
e 27 29
e 27 30
e 27 31
e 27 34
e 27 36
e 27 37
e 27 40
e 27 41
e 27 42
e 27 43
e 27 44
e 27 45
e 27 47
e 27 49
e 27 50
e 27 54
e 27 56
e 27 58
e 27 59
e 27 64
e 27 65
e 27 66
e 27 67
e 27 68
e 27 70
e 27 75
e 27 76
e 27 80
e 27 81
e 27 82
e 27 83
e 27 84
e 27 85
e 27 90
e 27 91
e 27 94
e 27 97
e 27 98
e 27 100
e 28 29
e 28 30
e 28 31
e 28 34
e 28 35
e 28 36
e 28 37
e 28 41
e 28 46
e 28 47
e 28 49
e 28 52
e 28 54
e 28 56
e 28 57
e 28 59
e 28 62
e 28 63
e 28 68
e 28 69
e 28 70
e 28 71
e 28 73
e 28 74
e 28 76
e 28 77
e 28 78
e 28 80
e 28 81
e 28 83
e 28 84
e 28 85
e 28 86
e 28 89
e 28 92
e 28 95
e 28 96
e 28 99
e 29 30
e 29 32
e 29 34
e 29 36
e 29 38
e 29 43
e 29 44
e 29 47
e 29 50
e 29 53
e 29 58
e 29 61
e 29 62
e 29 63
e 29 64
e 29 65
e 29 67
e 29 68
e 29 69
e 29 70
e 29 71
e 29 72
e 29 73
e 29 74
e 29 76
e 29 78
e 29 80
e 29 83
e 29 91
e 29 92
e 29 94
e 29 95
e 29 96
e 29 98
e 30 31
e 30 33
e 30 35
e 30 37
e 30 38
e 30 41
e 30 42
e 30 43
e 30 45
e 30 46
e 30 47
e 30 48
e 30 51
e 30 53
e 30 54
e 30 57
e 30 58
e 30 59
e 30 63
e 30 66
e 30 67
e 30 68
e 30 69
e 30 70
e 30 77
e 30 79
e 30 80
e 30 82
e 30 84
e 30 85
e 30 86
e 30 89
e 30 90
e 30 97
e 30 98
e 30 99
e 31 33
e 31 34
e 31 35
e 31 39
e 31 40
e 31 41
e 31 43
e 31 47
e 31 48
e 31 49
e 31 51
e 31 52
e 31 55
e 31 56
e 31 60
e 31 62
e 31 66
e 31 68
e 31 69
e 31 70
e 31 71
e 31 76
e 31 77
e 31 81
e 31 82
e 31 86
e 31 87
e 31 88
e 31 90
e 31 95
e 31 96
e 31 97
e 31 99
e 32 33
e 32 34
e 32 35
e 32 36
e 32 37
e 32 38
e 32 39
e 32 46
e 32 48
e 32 49
e 32 51
e 32 53
e 32 54
e 32 55
e 32 60
e 32 61
e 32 62
e 32 66
e 32 69
e 32 70
e 32 73
e 32 74
e 32 75
e 32 77
e 32 79
e 32 80
e 32 82
e 32 86
e 32 88
e 32 90
e 32 94
e 32 96
e 32 97
e 32 100
e 33 35
e 33 38
e 33 40
e 33 42
e 33 43
e 33 45
e 33 46
e 33 49
e 33 50
e 33 51
e 33 53
e 33 54
e 33 57
e 33 59
e 33 60
e 33 62
e 33 64
e 33 66
e 33 67
e 33 70
e 33 74
e 33 76
e 33 79
e 33 81
e 33 83
e 33 87
e 33 88
e 33 91
e 33 93
e 33 98
e 34 35
e 34 36
e 34 37
e 34 38
e 34 39
e 34 40
e 34 42
e 34 43
e 34 46
e 34 47
e 34 48
e 34 50
e 34 52
e 34 56
e 34 59
e 34 60
e 34 61
e 34 62
e 34 65
e 34 66
e 34 69
e 34 72
e 34 73
e 34 74
e 34 75
e 34 77
e 34 79
e 34 84
e 34 88
e 34 92
e 34 98
e 34 99
e 34 100
e 35 36
e 35 37
e 35 38
e 35 39
e 35 42
e 35 43
e 35 44
e 35 45
e 35 46
e 35 47
e 35 49
e 35 50
e 35 51
e 35 52
e 35 53
e 35 55
e 35 58
e 35 61
e 35 63
e 35 64
e 35 67
e 35 71
e 35 73
e 35 74
e 35 75
e 35 78
e 35 82
e 35 83
e 35 85
e 35 87
e 35 91
e 35 95
e 35 100
e 36 39
e 36 40
e 36 41
e 36 44
e 36 45
e 36 47
e 36 51
e 36 52
e 36 53
e 36 55
e 36 57
e 36 60
e 36 61
e 36 63
e 36 67
e 36 68
e 36 69
e 36 70
e 36 71
e 36 78
e 36 80
e 36 81
e 36 82
e 36 87
e 36 88
e 36 92
e 36 93
e 36 94
e 36 95
e 36 98
e 36 99
e 36 100
e 37 40
e 37 41
e 37 42
e 37 43
e 37 46
e 37 47
e 37 49
e 37 50
e 37 51
e 37 53
e 37 57
e 37 60
e 37 62
e 37 63
e 37 66
e 37 68
e 37 71
e 37 73
e 37 74
e 37 75
e 37 78
e 37 80
e 37 82
e 37 83
e 37 87
e 37 88
e 37 90
e 37 94
e 37 95
e 37 96
e 37 98
e 37 100
e 38 41
e 38 45
e 38 49
e 38 50
e 38 51
e 38 53
e 38 55
e 38 59
e 38 60
e 38 61
e 38 62
e 38 63
e 38 64
e 38 65
e 38 66
e 38 67
e 38 68
e 38 71
e 38 75
e 38 77
e 38 79
e 38 80
e 38 81
e 38 85
e 38 86
e 38 87
e 38 89
e 38 90
e 38 91
e 38 92
e 38 94
e 38 97
e 38 98
e 38 99
e 39 40
e 39 41
e 39 44
e 39 46
e 39 47
e 39 49
e 39 50
e 39 51
e 39 52
e 39 53
e 39 54
e 39 55
e 39 56
e 39 59
e 39 60
e 39 63
e 39 64
e 39 65
e 39 67
e 39 71
e 39 76
e 39 80
e 39 83
e 39 84
e 39 85
e 39 86
e 39 88
e 39 89
e 39 92
e 39 93
e 39 97
e 39 98
e 39 99
e 40 42
e 40 43
e 40 44
e 40 45
e 40 47
e 40 48
e 40 50
e 40 51
e 40 55
e 40 56
e 40 57
e 40 59
e 40 60
e 40 61
e 40 62
e 40 63
e 40 64
e 40 66
e 40 68
e 40 70
e 40 72
e 40 79
e 40 82
e 40 83
e 40 89
e 40 93
e 40 94
e 40 95
e 40 100
e 41 42
e 41 43
e 41 45
e 41 46
e 41 49
e 41 53
e 41 55
e 41 56
e 41 57
e 41 64
e 41 66
e 41 67
e 41 68
e 41 69
e 41 72
e 41 76
e 41 78
e 41 79
e 41 81
e 41 82
e 41 83
e 41 85
e 41 88
e 41 90
e 41 91
e 41 92
e 41 97
e 42 43
e 42 47
e 42 48
e 42 50
e 42 52
e 42 56
e 42 57
e 42 58
e 42 61
e 42 62
e 42 64
e 42 66
e 42 71
e 42 73
e 42 74
e 42 76
e 42 77
e 42 78
e 42 79
e 42 81
e 42 82
e 42 83
e 42 87
e 42 88
e 42 90
e 42 94
e 43 45
e 43 46
e 43 47
e 43 48
e 43 49
e 43 50
e 43 51
e 43 53
e 43 54
e 43 58
e 43 62
e 43 63
e 43 65
e 43 71
e 43 73
e 43 77
e 43 78
e 43 81
e 43 84
e 43 88
e 43 91
e 43 93
e 43 97
e 43 99
e 44 45
e 44 46
e 44 48
e 44 49
e 44 50
e 44 56
e 44 57
e 44 58
e 44 61
e 44 64
e 44 65
e 44 67
e 44 69
e 44 71
e 44 73
e 44 74
e 44 76
e 44 77
e 44 78
e 44 80
e 44 81
e 44 84
e 44 87
e 44 88
e 44 90
e 44 93
e 44 97
e 44 100
e 45 46
e 45 50
e 45 52
e 45 53
e 45 55
e 45 56
e 45 57
e 45 58
e 45 61
e 45 63
e 45 64
e 45 69
e 45 71
e 45 72
e 45 76
e 45 78
e 45 79
e 45 80
e 45 81
e 45 82
e 45 83
e 45 84
e 45 93
e 45 96
e 45 98
e 46 47
e 46 49
e 46 50
e 46 53
e 46 57
e 46 58
e 46 61
e 46 62
e 46 64
e 46 68
e 46 69
e 46 70
e 46 71
e 46 76
e 46 77
e 46 79
e 46 84
e 46 85
e 46 86
e 46 87
e 46 90
e 46 95
e 46 96
e 46 98
e 46 99
e 46 100
e 47 49
e 47 52
e 47 55
e 47 56
e 47 58
e 47 61
e 47 63
e 47 67
e 47 68
e 47 69
e 47 70
e 47 71
e 47 73
e 47 76
e 47 83
e 47 84
e 47 91
e 47 92
e 47 93
e 47 96
e 48 53
e 48 54
e 48 58
e 48 60
e 48 61
e 48 62
e 48 63
e 48 64
e 48 65
e 48 67
e 48 68
e 48 70
e 48 71
e 48 75
e 48 77
e 48 79
e 48 81
e 48 83
e 48 86
e 48 87
e 48 89
e 48 90
e 48 92
e 48 95
e 48 97
e 48 99
e 48 100
e 49 50
e 49 51
e 49 52
e 49 54
e 49 56
e 49 57
e 49 58
e 49 61
e 49 66
e 49 68
e 49 69
e 49 71
e 49 72
e 49 73
e 49 75
e 49 76
e 49 77
e 49 79
e 49 81
e 49 83
e 49 84
e 49 88
e 49 89
e 49 98
e 50 54
e 50 56
e 50 60
e 50 62
e 50 63
e 50 65
e 50 66
e 50 67
e 50 70
e 50 71
e 50 75
e 50 79
e 50 80
e 50 83
e 50 84
e 50 87
e 50 96
e 50 98
e 50 99
e 50 100
e 51 54
e 51 56
e 51 61
e 51 63
e 51 64
e 51 66
e 51 68
e 51 69
e 51 72
e 51 75
e 51 79
e 51 80
e 51 83
e 51 85
e 51 86
e 51 88
e 51 89
e 51 90
e 51 94
e 51 96
e 51 98
e 52 53
e 52 55
e 52 57
e 52 59
e 52 60
e 52 63
e 52 64
e 52 65
e 52 67
e 52 69
e 52 72
e 52 73
e 52 74
e 52 75
e 52 78
e 52 79
e 52 84
e 52 86
e 52 88
e 52 89
e 52 91
e 52 95
e 52 96
e 52 97
e 52 99
e 53 54
e 53 56
e 53 57
e 53 61
e 53 62
e 53 64
e 53 65
e 53 66
e 53 69
e 53 70
e 53 72
e 53 75
e 53 76
e 53 79
e 53 80
e 53 82
e 53 83
e 53 85
e 53 92
e 53 94
e 53 96
e 53 98
e 54 55
e 54 57
e 54 58
e 54 60
e 54 65
e 54 68
e 54 73
e 54 74
e 54 76
e 54 77
e 54 78
e 54 79
e 54 80
e 54 81
e 54 84
e 54 87
e 54 89
e 54 90
e 54 91
e 54 92
e 54 97
e 54 99
e 54 100
e 55 56
e 55 59
e 55 61
e 55 62
e 55 63
e 55 65
e 55 70
e 55 72
e 55 76
e 55 77
e 55 80
e 55 84
e 55 85
e 55 87
e 55 89
e 55 93
e 55 94
e 55 100
e 56 57
e 56 58
e 56 59
e 56 60
e 56 63
e 56 64
e 56 71
e 56 72
e 56 73
e 56 75
e 56 78
e 56 79
e 56 80
e 56 81
e 56 85
e 56 87
e 56 88
e 56 89
e 56 91
e 56 95
e 56 97
e 56 100
e 57 58
e 57 60
e 57 64
e 57 70
e 57 71
e 57 75
e 57 76
e 57 81
e 57 82
e 57 88
e 57 90
e 57 91
e 57 92
e 57 93
e 57 98
e 57 99
e 57 100
e 58 59
e 58 64
e 58 65
e 58 66
e 58 72
e 58 74
e 58 75
e 58 76
e 58 78
e 58 80
e 58 82
e 58 85
e 58 86
e 58 87
e 58 88
e 58 92
e 58 95
e 58 100
e 59 62
e 59 63
e 59 65
e 59 70
e 59 71
e 59 73
e 59 74
e 59 75
e 59 76
e 59 77
e 59 78
e 59 79
e 59 84
e 59 85
e 59 88
e 59 90
e 59 92
e 59 93
e 59 94
e 59 95
e 59 100
e 60 61
e 60 66
e 60 67
e 60 68
e 60 69
e 60 72
e 60 74
e 60 75
e 60 84
e 60 86
e 60 89
e 60 91
e 60 95
e 60 96
e 60 98
e 60 99
e 61 63
e 61 65
e 61 68
e 61 70
e 61 71
e 61 72
e 61 73
e 61 76
e 61 77
e 61 82
e 61 85
e 61 86
e 61 87
e 61 89
e 61 93
e 61 94
e 61 96
e 62 64
e 62 66
e 62 68
e 62 69
e 62 70
e 62 72
e 62 73
e 62 78
e 62 79
e 62 81
e 62 83
e 62 85
e 62 86
e 62 90
e 62 91
e 62 95
e 62 100
e 63 66
e 63 67
e 63 68
e 63 70
e 63 72
e 63 73
e 63 74
e 63 77
e 63 79
e 63 83
e 63 86
e 63 88
e 63 93
e 63 94
e 63 95
e 63 96
e 63 100
e 64 66
e 64 69
e 64 74
e 64 76
e 64 77
e 64 78
e 64 80
e 64 81
e 64 84
e 64 85
e 64 87
e 64 89
e 64 93
e 64 95
e 64 97
e 64 98
e 65 66
e 65 67
e 65 68
e 65 72
e 65 73
e 65 77
e 65 79
e 65 82
e 65 84
e 65 87
e 65 88
e 65 89
e 65 93
e 65 94
e 66 67
e 66 69
e 66 73
e 66 74
e 66 75
e 66 80
e 66 82
e 66 88
e 66 89
e 66 91
e 66 96
e 67 68
e 67 69
e 67 72
e 67 73
e 67 80
e 67 83
e 67 85
e 67 86
e 67 87
e 67 88
e 67 89
e 67 92
e 67 93
e 67 97
e 68 70
e 68 73
e 68 82
e 68 83
e 68 87
e 68 89
e 68 90
e 68 91
e 68 92
e 68 93
e 68 94
e 68 96
e 68 99
e 68 100
e 69 70
e 69 71
e 69 73
e 69 74
e 69 76
e 69 82
e 69 85
e 69 86
e 69 88
e 69 90
e 69 92
e 69 95
e 70 71
e 70 73
e 70 74
e 70 75
e 70 79
e 70 80
e 70 82
e 70 85
e 70 86
e 70 90
e 70 92
e 70 99
e 71 72
e 71 74
e 71 75
e 71 77
e 71 80
e 71 81
e 71 82
e 71 84
e 71 86
e 71 90
e 71 94
e 71 95
e 71 99
e 72 74
e 72 77
e 72 78
e 72 79
e 72 80
e 72 82
e 72 84
e 72 85
e 72 88
e 72 89
e 72 91
e 72 92
e 72 96
e 72 97
e 72 98
e 72 99
e 72 100
e 73 74
e 73 78
e 73 80
e 73 82
e 73 85
e 73 86
e 73 87
e 73 90
e 73 99
e 74 78
e 74 81
e 74 84
e 74 86
e 74 88
e 74 89
e 74 90
e 74 91
e 74 92
e 74 94
e 74 96
e 74 98
e 74 99
e 75 77
e 75 78
e 75 79
e 75 80
e 75 82
e 75 84
e 75 86
e 75 91
e 75 93
e 75 94
e 75 96
e 75 97
e 76 79
e 76 82
e 76 83
e 76 85
e 76 89
e 76 91
e 76 92
e 76 93
e 76 94
e 76 97
e 76 100
e 77 78
e 77 81
e 77 82
e 77 83
e 77 86
e 77 88
e 77 89
e 77 90
e 77 91
e 77 92
e 77 94
e 77 100
e 78 84
e 78 86
e 78 87
e 78 88
e 78 89
e 78 90
e 78 91
e 78 92
e 78 94
e 78 95
e 78 97
e 78 98
e 78 100
e 79 83
e 79 86
e 79 91
e 79 96
e 80 82
e 80 83
e 80 86
e 80 90
e 80 91
e 80 94
e 80 95
e 81 83
e 81 84
e 81 88
e 81 90
e 81 91
e 81 93
e 81 94
e 81 96
e 81 99
e 82 85
e 82 87
e 82 94
e 82 96
e 82 98
e 82 99
e 82 100
e 83 84
e 83 86
e 83 87
e 83 88
e 83 90
e 84 85
e 84 87
e 84 88
e 84 92
e 84 93
e 85 87
e 85 88
e 85 95
e 85 96
e 86 87
e 86 90
e 86 92
e 86 93
e 86 97
e 86 99
e 87 89
e 87 93
e 87 94
e 87 95
e 87 96
e 87 97
e 87 98
e 88 91
e 88 92
e 88 95
e 88 96
e 89 90
e 89 92
e 89 94
e 89 96
e 89 97
e 89 99
e 89 100
e 90 93
e 90 98
e 90 99
e 91 93
e 91 98
e 92 94
e 92 98
e 92 99
e 92 100
e 93 94
e 93 99
e 94 95
e 94 96
e 95 96
e 97 100
e 98 100
n 1 2
n 10 2
n 13 2
n 14 2
n 17 2
n 23 2
n 26 2
n 27 2
n 30 2
n 33 2
n 34 2
n 40 2
n 54 2
n 55 2
n 58 2
n 62 2
n 65 2
n 67 2
n 71 1
n 73 2
n 76 2
n 78 2
n 83 2
n 91 2
n 92 2
n 93 2
n 96 3
n 97 2
n 98 2
n 100 2
